(set-info :smt-lib-version 2.6)
(set-logic QF_LIA)
(set-info :source |
Alberto Griggio

|)
(set-info :category "crafted")
(set-info :status unsat)
(declare-fun v0 () Int)
(declare-fun v1 () Int)
(declare-fun v2 () Int)
(declare-fun v3 () Int)
(declare-fun v4 () Int)
(declare-fun v5 () Int)
(declare-fun v6 () Int)
(declare-fun v7 () Int)
(declare-fun o_0 () Int)
(declare-fun s_2 () Int)
(declare-fun o_1 () Int)
(declare-fun s_3 () Int)
(declare-fun s_4 () Int)
(declare-fun o_2 () Int)
(declare-fun s_5 () Int)
(declare-fun s_6 () Int)
(declare-fun o_3 () Int)
(declare-fun o_4 () Int)
(declare-fun o_5 () Int)
(declare-fun o_6 () Int)
(declare-fun o_7 () Int)
(declare-fun o_8 () Int)
(declare-fun o_9 () Int)
(declare-fun s_10 () Int)
(declare-fun o_10 () Int)
(declare-fun s_11 () Int)
(declare-fun o_11 () Int)
(declare-fun s_12 () Int)
(declare-fun o_12 () Int)
(declare-fun s_13 () Int)
(declare-fun o_13 () Int)
(declare-fun A_itev1 () Int)
(declare-fun A_itev2 () Int)
(declare-fun A_itev3 () Int)
(declare-fun A_itev4 () Int)
(declare-fun A_itev5 () Int)
(declare-fun A_itev6 () Int)
(declare-fun A_itev7 () Int)
(declare-fun A_itev8 () Int)
(declare-fun A_itev9 () Int)
(declare-fun A_itev10 () Int)
(declare-fun A_itev11 () Int)
(declare-fun A_itev12 () Int)
(assert (let ((?v_107 (+ (+ (* v6 64) (* v7 128)) (* v5 32))) (?v_106 (* A_itev6 16)) (?v_44 (* v1 2)) (?v_30 (* v2 4)) (?v_68 (* v3 8)) (?v_103 (* v4 16)) (?v_100 (* A_itev6 8)) (?v_95 (* A_itev6 4)) (?v_90 (* A_itev6 2)) (?v_77 (- o_2)) (?v_76 (- s_3)) (?v_57 (- s_4)) (?v_75 (- o_3)) (?v_65 (- s_5)) (?v_64 (- s_6)) (?v_55 (* v5 2)) (?v_63 (* v7 8)) (?v_62 (* v6 4))) (let ((?v_74 (+ ?v_62 ?v_63))) (let ((?v_79 (+ (+ (+ (+ (+ (+ (+ (+ ?v_74 ?v_55) v4) ?v_64) ?v_65) ?v_75) ?v_57) ?v_76) ?v_77))) (let ((?v_78 (+ (- o_5) ?v_79)) (?v_67 (+ (+ ?v_74 ?v_64) ?v_65))) (let ((?v_66 (+ ?v_67 ?v_75)) (?v_61 (+ ?v_64 ?v_63)) (?v_60 (+ ?v_65 ?v_62)) (?v_59 (+ (+ (+ ?v_55 v4) ?v_57) ?v_76))) (let ((?v_58 (+ ?v_59 ?v_77)) (?v_56 (+ ?v_57 ?v_55)) (?v_1 (<= 16 v7))) (let ((?v_50 (not ?v_1)) (?v_27 (<= 16 v2))) (let ((?v_49 (not ?v_27)) (?v_41 (<= 16 v1))) (let ((?v_48 (not ?v_41)) (?v_47 (= A_itev12 A_itev11)) (?v_46 (= (+ (- A_itev12) ?v_44) 0)) (?v_45 (<= 8 v1)) (?v_40 (+ (- A_itev11) ?v_44))) (let ((?v_43 (= ?v_40 16)) (?v_42 (= ?v_40 32)) (?v_39 (= A_itev10 A_itev9)) (?v_38 (= (+ (- A_itev10) ?v_30) 0)) (?v_37 (<= 4 v2)) (?v_36 (= A_itev9 A_itev8)) (?v_35 (= (+ (- A_itev9) ?v_30) 16)) (?v_34 (<= 8 v2)) (?v_33 (= A_itev8 A_itev7)) (?v_32 (= (+ (- A_itev8) ?v_30) 32)) (?v_31 (<= 12 v2)) (?v_26 (+ (- A_itev7) ?v_30))) (let ((?v_29 (= ?v_26 48)) (?v_28 (= ?v_26 64)) (?v_25 (= A_itev6 A_itev5)) (?v_16 (= A_itev4 A_itev3)) (?v_7 (= A_itev2 A_itev1)) (?v_4 (* v7 2))) (let ((?v_6 (= (+ (- A_itev2) ?v_4) 0)) (?v_5 (<= 8 v7)) (?v_0 (+ (- A_itev1) ?v_4))) (let ((?v_3 (= ?v_0 16)) (?v_2 (= ?v_0 32)) (?v_13 (+ (+ (* o_7 (- 32)) (* v6 2)) (* A_itev2 2)))) (let ((?v_8 (+ (- A_itev3) ?v_13))) (let ((?v_11 (= ?v_8 16)) (?v_12 (+ (+ (* o_7 (- 16)) v6) A_itev2))) (let ((?v_9 (<= 16 ?v_12)) (?v_10 (= ?v_8 32))) (let ((?v_83 (not ?v_9)) (?v_14 (<= 8 ?v_12)) (?v_15 (= (+ ?v_13 (- A_itev4)) 0)) (?v_22 (+ (+ (* o_8 (- 32)) ?v_55) (* A_itev4 2)))) (let ((?v_17 (+ (- A_itev5) ?v_22))) (let ((?v_20 (= ?v_17 16)) (?v_21 (+ (+ (* o_8 (- 16)) v5) A_itev4))) (let ((?v_18 (<= 16 ?v_21)) (?v_19 (= ?v_17 32))) (let ((?v_84 (not ?v_18)) (?v_23 (<= 8 ?v_21)) (?v_24 (= (+ ?v_22 (- A_itev6)) 0)) (?v_71 (* o_0 (- 16)))) (let ((?v_51 (+ (+ ?v_71 v0) A_itev12)) (?v_52 (+ (* s_2 (- 2)) v3)) (?v_69 (* s_2 (- 16)))) (let ((?v_54 (+ ?v_69 ?v_68)) (?v_70 (* o_1 (- 16)))) (let ((?v_53 (+ (+ ?v_54 ?v_70) A_itev10)) (?v_73 (+ (+ (+ (+ ?v_68 v0) ?v_69) ?v_70) ?v_71)) (?v_80 (* o_4 (- 16)))) (let ((?v_72 (+ (+ (+ ?v_73 ?v_80) A_itev10) A_itev12)) (?v_108 (* s_6 (- 16))) (?v_109 (* s_5 (- 16))) (?v_110 (* o_3 (- 16))) (?v_111 (* s_4 (- 16))) (?v_112 (* s_3 (- 16))) (?v_113 (* o_2 (- 16))) (?v_114 (* o_5 (- 16)))) (let ((?v_82 (+ (+ (+ (+ (+ (+ (+ (+ (+ (+ (+ (+ (+ (+ ?v_107 ?v_103) ?v_68) v0) ?v_108) ?v_109) ?v_110) ?v_111) ?v_112) ?v_113) ?v_114) ?v_69) ?v_70) ?v_71) ?v_80)) (?v_115 (* o_6 (- 16)))) (let ((?v_81 (+ (+ (+ ?v_82 ?v_115) A_itev10) A_itev12)) (?v_86 (+ (* o_9 (- 16)) v4))) (let ((?v_85 (+ ?v_86 A_itev6)) (?v_87 (+ (+ (* s_10 (- 8)) ?v_86) A_itev6)) (?v_89 (+ (+ (+ (* o_9 (- 32)) (* v4 2)) (* s_10 (- 16))) v3))) (let ((?v_91 (+ ?v_89 (* o_10 (- 16))))) (let ((?v_88 (+ ?v_91 ?v_90)) (?v_92 (+ (+ (* s_11 (- 8)) ?v_91) ?v_90)) (?v_94 (+ (+ (+ (+ (+ (+ (* o_9 (- 64)) (* v4 4)) (* s_10 (- 32))) (* v3 2)) (* o_10 (- 32))) (* s_11 (- 16))) v2))) (let ((?v_96 (+ ?v_94 (* o_11 (- 16))))) (let ((?v_93 (+ ?v_96 ?v_95)) (?v_97 (+ (+ (* s_12 (- 8)) ?v_96) ?v_95)) (?v_99 (+ (+ (+ (+ (+ (+ (+ (+ (+ (* o_9 (- 128)) (* v4 8)) (* s_10 (- 64))) (* v3 4)) (* o_10 (- 64))) (* s_11 (- 32))) (* v2 2)) (* o_11 (- 32))) (* s_12 (- 16))) v1))) (let ((?v_101 (+ ?v_99 (* o_12 (- 16))))) (let ((?v_98 (+ ?v_101 ?v_100)) (?v_102 (+ (+ (* s_13 (- 8)) ?v_101) ?v_100)) (?v_105 (+ (+ (+ (+ (+ (+ (+ (+ (+ (+ (+ (+ (* o_9 (- 256)) ?v_103) (* s_10 (- 128))) ?v_68) (* o_10 (- 128))) (* s_11 (- 64))) ?v_30) (* o_11 (- 64))) (* s_12 (- 32))) ?v_44) (* o_12 (- 32))) (* s_13 (- 16))) v0))) (let ((?v_104 (+ (+ (* o_13 (- 16)) ?v_105) ?v_106))) (and (and (and (and (and (and (and (and (and (and (and (and (and (and (and (and (and (and (and (and (and (and (and (and (and (and (and (and (and (and (and (and (and (and (and (and (or ?v_2 ?v_50) (or ?v_3 ?v_1)) (or ?v_2 ?v_3)) (or ?v_5 ?v_6)) (or (not ?v_5) ?v_7)) (or ?v_6 ?v_7)) (or ?v_11 ?v_9)) (or ?v_10 ?v_83)) (or ?v_10 ?v_11)) (or ?v_14 ?v_15)) (or (not ?v_14) ?v_16)) (or ?v_15 ?v_16)) (or ?v_20 ?v_18)) (or ?v_19 ?v_84)) (or ?v_19 ?v_20)) (or ?v_23 ?v_24)) (or (not ?v_23) ?v_25)) (or ?v_24 ?v_25)) (or ?v_29 ?v_27)) (or ?v_28 ?v_49)) (or ?v_28 ?v_29)) (or ?v_31 ?v_32)) (or (not ?v_31) ?v_33)) (or ?v_32 ?v_33)) (or ?v_34 ?v_35)) (or (not ?v_34) ?v_36)) (or ?v_35 ?v_36)) (or ?v_37 ?v_38)) (or (not ?v_37) ?v_39)) (or ?v_38 ?v_39)) (or ?v_43 ?v_41)) (or ?v_42 ?v_48)) (or ?v_42 ?v_43)) (or ?v_45 ?v_46)) (or (not ?v_45) ?v_47)) (or ?v_46 ?v_47)) (and (and (and (and (and (and (and (and (and (and (and (and (and (and (and (and (and (and (and (and (and (and (and (and (and (and (and (and (and (and (and (and (and (and (and (and (and (and (and (and (and (and (and (and (and (and (and (and (and (and (and (and (and (and (and (and (and (and (and (and (and (and (and (and (and (and (and (and (and (and (and (and (and (and (and (and (and (and (<= 0 v0) (not (<= 16 v0))) (and (<= 0 v1) ?v_48)) (and (<= 0 v2) ?v_49)) (and (<= 0 v3) (not (<= 16 v3)))) (and (<= 0 v4) (not (<= 16 v4)))) (and (<= 0 v5) (not (<= 16 v5)))) (and (<= 0 v6) (not (<= 16 v6)))) (and (<= 0 v7) ?v_50)) (and (<= 0 o_0) (<= o_0 1))) (and (<= 0 ?v_51) (not (<= 16 ?v_51)))) (= (not (<= (+ A_itev12 v0) 16)) (= o_0 1))) (and (not (<= 8 s_2)) (<= 0 s_2))) (and (<= 0 ?v_52) (not (<= 2 ?v_52)))) (= (<= 1 s_2) (not (<= v3 2)))) (and (<= 0 o_1) (<= o_1 1))) (and (<= 0 ?v_53) (not (<= 16 ?v_53)))) (= (not (<= (+ ?v_54 A_itev10) 16)) (= o_1 1))) (and (not (<= 16 s_3)) (<= 0 s_3))) (and (<= s_3 v4) (not (<= 1 (- v4 s_3))))) (= (<= 1 s_3) (not (<= v4 1)))) (and (not (<= 32 s_4)) (<= 0 s_4))) (and (<= 0 ?v_56) (not (<= 1 ?v_56)))) (= (<= 1 s_4) (not (<= v5 0)))) (and (<= 0 o_2) (<= o_2 1))) (and (<= 0 ?v_58) (not (<= 1 ?v_58)))) (= (not (<= ?v_59 1)) (= o_2 1))) (and (not (<= 64 s_5)) (<= 0 s_5))) (and (<= 0 ?v_60) (not (<= 1 ?v_60)))) (= (<= 1 s_5) (not (<= v6 0)))) (and (not (<= 128 s_6)) (<= 0 s_6))) (and (<= 0 ?v_61) (not (<= 1 ?v_61)))) (= (<= 1 s_6) (not (<= v7 0)))) (and (<= 0 o_3) (<= o_3 1))) (and (<= 0 ?v_66) (not (<= 1 ?v_66)))) (= (not (<= ?v_67 1)) (= o_3 1))) (and (<= 0 o_4) (<= o_4 1))) (and (<= 0 ?v_72) (not (<= 16 ?v_72)))) (= (not (<= (+ (+ ?v_73 A_itev10) A_itev12) 16)) (= o_4 1))) (and (<= 0 o_5) (<= o_5 1))) (and (<= 0 ?v_78) (not (<= 1 ?v_78)))) (= (not (<= ?v_79 1)) (= o_5 1))) (and (<= 0 o_6) (<= o_6 1))) (and (<= 0 ?v_81) (not (<= 16 ?v_81)))) (= (not (<= (+ (+ ?v_82 A_itev10) A_itev12) 16)) (= o_6 1))) (and (<= 0 o_7) (<= o_7 1))) (and (<= 0 ?v_12) ?v_83)) (= (not (<= (+ A_itev2 v6) 16)) (= o_7 1))) (and (<= 0 o_8) (<= o_8 1))) (and (<= 0 ?v_21) ?v_84)) (= (not (<= (+ A_itev4 v5) 16)) (= o_8 1))) (and (<= 0 o_9) (<= o_9 1))) (and (<= 0 ?v_85) (not (<= 16 ?v_85)))) (= (not (<= (+ A_itev6 v4) 16)) (= o_9 1))) (and (not (<= 2 s_10)) (<= 0 s_10))) (and (<= 0 ?v_87) (not (<= 8 ?v_87)))) (= (<= 1 s_10) (not (<= ?v_85 8)))) (and (<= 0 o_10) (<= o_10 1))) (and (<= 0 ?v_88) (not (<= 16 ?v_88)))) (= (not (<= (+ ?v_89 ?v_90) 16)) (= o_10 1))) (and (not (<= 2 s_11)) (<= 0 s_11))) (and (<= 0 ?v_92) (not (<= 8 ?v_92)))) (= (<= 1 s_11) (not (<= ?v_88 8)))) (and (<= 0 o_11) (<= o_11 1))) (and (<= 0 ?v_93) (not (<= 16 ?v_93)))) (= (not (<= (+ ?v_94 ?v_95) 16)) (= o_11 1))) (and (not (<= 2 s_12)) (<= 0 s_12))) (and (<= 0 ?v_97) (not (<= 8 ?v_97)))) (= (<= 1 s_12) (not (<= ?v_93 8)))) (and (<= 0 o_12) (<= o_12 1))) (and (<= 0 ?v_98) (not (<= 16 ?v_98)))) (= (not (<= (+ ?v_99 ?v_100) 16)) (= o_12 1))) (and (not (<= 2 s_13)) (<= 0 s_13))) (and (<= 0 ?v_102) (not (<= 8 ?v_102)))) (= (<= 1 s_13) (not (<= ?v_98 8)))) (and (<= 0 o_13) (<= o_13 1))) (and (<= 0 ?v_104) (not (<= 16 ?v_104)))) (= (not (<= (+ ?v_105 ?v_106) 16)) (= o_13 1))) (not (= (+ (+ (+ (+ (+ (+ (+ (+ (+ (+ (+ (+ (+ (+ (+ (+ (+ (+ (+ (+ (+ (+ (+ (+ (+ (+ ?v_107 (* o_9 256)) (* s_10 128)) (* o_10 128)) (* s_11 64)) (* v2 (- 4))) (* o_11 64)) (* s_12 32)) (* v1 (- 2))) (* o_12 32)) (* s_13 16)) (* o_13 16)) ?v_108) ?v_109) ?v_110) ?v_111) ?v_112) ?v_113) ?v_114) ?v_69) ?v_70) ?v_71) ?v_80) ?v_115) (* A_itev6 (- 16))) A_itev10) A_itev12) 0))))))))))))))))))))))))))))))))))))))))
(check-sat)
(exit)
